data/lp_files/q3/38_0.lp
\ Model foo
\ LP format - for model browsing. Use MPS format to capture full model detail.
Minimize
  z
Subject To
 allocateEach[1]: x[1,1] + x[2,1] = 1
 allocateEach[2]: x[1,2] + x[2,2] = 1
 allocateEach[3]: x[1,3] + x[2,3] = 1
 allocateEach[4]: x[1,4] + x[2,4] = 1
 allocateEach[5]: x[1,5] + x[2,5] = 1
 allocateEach[6]: x[1,6] + x[2,6] = 1
 allocateEach[7]: x[1,7] + x[2,7] = 1
 allocateEach[8]: x[1,8] + x[2,8] = 1
 allocateEach[9]: x[1,9] + x[2,9] = 1
 allocateEach[10]: x[1,10] + x[2,10] = 1
 allocateEach[11]: x[1,11] + x[2,11] = 1
 allocateEach[12]: x[1,12] + x[2,12] = 1
 allocateEach[13]: x[1,13] + x[2,13] = 1
 allocateEach[14]: x[1,14] + x[2,14] = 1
 allocateEach[15]: x[1,15] + x[2,15] = 1
 allocateEach[16]: x[1,16] + x[2,16] = 1
 allocateEach[17]: x[1,17] + x[2,17] = 1
 allocateEach[18]: x[1,18] + x[2,18] = 1
 allocateAllCash: cashProportion[1] + cashProportion[2] = 1
 findWorstP[1,2]: z + 0.00530689790589809 cashProportion[1]
   - 0.00530689790589809 cashProportion[2] + 0.0659541271745014 x[1,1]
   + 0.0420518590063364 x[1,2] + 0.0982200664423618 x[1,3]
   + 0.0539605379071717 x[1,4] + 0.0102635405500069 x[1,5]
   + 0.0585987666769267 x[1,6] + 0.0179479287177473 x[1,7]
   + 0.0798051307088954 x[1,8] + 0.0502987783521021 x[1,9]
   + 0.0189774669114916 x[1,10] + 0.0460532600273836 x[1,11]
   + 0.0714202320175765 x[1,12] + 0.0588004287973508 x[1,13]
   + 0.1052251716781473 x[1,14] + 0.0306101871212202 x[1,15]
   + 0.0605304775146736 x[1,16] + 0.0258976617807827 x[1,17]
   + 0.1000774807094261 x[1,18] - 0.0659541271745014 x[2,1]
   - 0.0420518590063364 x[2,2] - 0.0982200664423618 x[2,3]
   - 0.0539605379071717 x[2,4] - 0.0102635405500069 x[2,5]
   - 0.0585987666769267 x[2,6] - 0.0179479287177473 x[2,7]
   - 0.0798051307088954 x[2,8] - 0.0502987783521021 x[2,9]
   - 0.0189774669114916 x[2,10] - 0.0460532600273836 x[2,11]
   - 0.0714202320175765 x[2,12] - 0.0588004287973508 x[2,13]
   - 0.1052251716781473 x[2,14] - 0.0306101871212202 x[2,15]
   - 0.0605304775146736 x[2,16] - 0.0258976617807827 x[2,17]
   - 0.1000774807094261 x[2,18] >= 0
 findWorstP[2,1]: z - 0.00482821220958304 cashProportion[1]
   + 0.00482821220958304 cashProportion[2] - 0.0551961219799533 x[1,1]
   - 0.0922574789007126 x[1,2] - 0.0182989242743197 x[1,3]
   - 0.0485718148284053 x[1,4] - 0.0249232314258676 x[1,5]
   - 0.0903841325633944 x[1,6] - 0.0771451746847178 x[1,7]
   - 0.0320593290716314 x[1,8] - 0.0448927171247031 x[1,9]
   - 0.072394213870488 x[1,10] - 0.0688406496842349 x[1,11]
   - 0.0032445586048398 x[1,12] - 0.0607775352942312 x[1,13]
   - 0.0840978002665173 x[1,14] - 0.0679908843353483 x[1,15]
   - 0.0587496861662064 x[1,16] - 0.0907800459645802 x[1,17]
   - 0.00456748875026555 x[1,18] + 0.0551961219799533 x[2,1]
   + 0.0922574789007126 x[2,2] + 0.0182989242743197 x[2,3]
   + 0.0485718148284053 x[2,4] + 0.0249232314258676 x[2,5]
   + 0.0903841325633944 x[2,6] + 0.0771451746847178 x[2,7]
   + 0.0320593290716314 x[2,8] + 0.0448927171247031 x[2,9]
   + 0.072394213870488 x[2,10] + 0.0688406496842349 x[2,11]
   + 0.0032445586048398 x[2,12] + 0.0607775352942312 x[2,13]
   + 0.0840978002665173 x[2,14] + 0.0679908843353483 x[2,15]
   + 0.0587496861662064 x[2,16] + 0.0907800459645802 x[2,17]
   + 0.00456748875026555 x[2,18] >= 0
Bounds
 z <= 1
 -infinity <= cashProportion[1] <= 1
 -infinity <= cashProportion[2] <= 1
Binaries
 x[1,1] x[1,2] x[1,3] x[1,4] x[1,5] x[1,6] x[1,7] x[1,8] x[1,9] x[1,10]
 x[1,11] x[1,12] x[1,13] x[1,14] x[1,15] x[1,16] x[1,17] x[1,18] x[2,1]
 x[2,2] x[2,3] x[2,4] x[2,5] x[2,6] x[2,7] x[2,8] x[2,9] x[2,10] x[2,11]
 x[2,12] x[2,13] x[2,14] x[2,15] x[2,16] x[2,17] x[2,18]
End
