data/mps_files/pEFS/38_0.mps
NAME foo
ROWS
 N  OBJ
 E  allocateEach[1]
 E  allocateEach[2]
 E  allocateEach[3]
 E  allocateEach[4]
 E  allocateEach[5]
 E  allocateEach[6]
 E  allocateEach[7]
 E  allocateEach[8]
 E  allocateEach[9]
 E  allocateEach[10]
 E  allocateEach[11]
 E  allocateEach[12]
 E  allocateEach[13]
 E  allocateEach[14]
 E  allocateEach[15]
 E  allocateEach[16]
 E  allocateEach[17]
 E  allocateEach[18]
 E  allocateAllCash
 G  findWorstP[1,2]
 G  findWorstP[2,1]
COLUMNS
    z         OBJ       1
    z         findWorstP[1,2]  1
    z         findWorstP[2,1]  1
    cashProportion[1]  allocateAllCash  1
    cashProportion[1]  findWorstP[1,2]  5.3068979058980871e-03
    cashProportion[1]  findWorstP[2,1]  -4.8282122095830360e-03
    cashProportion[2]  allocateAllCash  1
    cashProportion[2]  findWorstP[1,2]  -5.3068979058980871e-03
    cashProportion[2]  findWorstP[2,1]  4.8282122095830360e-03
    MARKER    'MARKER'                 'INTORG'
    x[1,1]    allocateEach[1]  1
    x[1,1]    findWorstP[1,2]  6.5954127174501415e-02
    x[1,1]    findWorstP[2,1]  -5.5196121979953258e-02
    x[1,2]    allocateEach[2]  1
    x[1,2]    findWorstP[1,2]  4.2051859006336435e-02
    x[1,2]    findWorstP[2,1]  -9.2257478900712647e-02
    x[1,3]    allocateEach[3]  1
    x[1,3]    findWorstP[1,2]  9.8220066442361781e-02
    x[1,3]    findWorstP[2,1]  -1.8298924274319704e-02
    x[1,4]    allocateEach[4]  1
    x[1,4]    findWorstP[1,2]  5.3960537907171736e-02
    x[1,4]    findWorstP[2,1]  -4.8571814828405335e-02
    x[1,5]    allocateEach[5]  1
    x[1,5]    findWorstP[1,2]  0.0102635405500069
    x[1,5]    findWorstP[2,1]  -2.4923231425867630e-02
    x[1,6]    allocateEach[6]  1
    x[1,6]    findWorstP[1,2]  5.8598766676926671e-02
    x[1,6]    findWorstP[2,1]  -9.0384132563394434e-02
    x[1,7]    allocateEach[7]  1
    x[1,7]    findWorstP[1,2]  1.7947928717747329e-02
    x[1,7]    findWorstP[2,1]  -7.7145174684717752e-02
    x[1,8]    allocateEach[8]  1
    x[1,8]    findWorstP[1,2]  7.9805130708895430e-02
    x[1,8]    findWorstP[2,1]  -3.2059329071631358e-02
    x[1,9]    allocateEach[9]  1
    x[1,9]    findWorstP[1,2]  5.0298778352102065e-02
    x[1,9]    findWorstP[2,1]  -4.4892717124703059e-02
    x[1,10]   allocateEach[10]  1
    x[1,10]   findWorstP[1,2]  1.8977466911491554e-02
    x[1,10]   findWorstP[2,1]  -7.2394213870488042e-02
    x[1,11]   allocateEach[11]  1
    x[1,11]   findWorstP[1,2]  4.6053260027383594e-02
    x[1,11]   findWorstP[2,1]  -6.8840649684234922e-02
    x[1,12]   allocateEach[12]  1
    x[1,12]   findWorstP[1,2]  7.1420232017576454e-02
    x[1,12]   findWorstP[2,1]  -3.2445586048397996e-03
    x[1,13]   allocateEach[13]  1
    x[1,13]   findWorstP[1,2]  5.8800428797350805e-02
    x[1,13]   findWorstP[2,1]  -6.0777535294231244e-02
    x[1,14]   allocateEach[14]  1
    x[1,14]   findWorstP[1,2]  1.0522517167814725e-01
    x[1,14]   findWorstP[2,1]  -8.4097800266517309e-02
    x[1,15]   allocateEach[15]  1
    x[1,15]   findWorstP[1,2]  3.0610187121220163e-02
    x[1,15]   findWorstP[2,1]  -0.0679908843353483
    x[1,16]   allocateEach[16]  1
    x[1,16]   findWorstP[1,2]  6.0530477514673574e-02
    x[1,16]   findWorstP[2,1]  -5.8749686166206377e-02
    x[1,17]   allocateEach[17]  1
    x[1,17]   findWorstP[1,2]  2.5897661780782660e-02
    x[1,17]   findWorstP[2,1]  -9.0780045964580239e-02
    x[1,18]   allocateEach[18]  1
    x[1,18]   findWorstP[1,2]  1.0007748070942611e-01
    x[1,18]   findWorstP[2,1]  -4.5674887502655517e-03
    x[2,1]    allocateEach[1]  1
    x[2,1]    findWorstP[1,2]  -6.5954127174501415e-02
    x[2,1]    findWorstP[2,1]  5.5196121979953258e-02
    x[2,2]    allocateEach[2]  1
    x[2,2]    findWorstP[1,2]  -4.2051859006336435e-02
    x[2,2]    findWorstP[2,1]  9.2257478900712647e-02
    x[2,3]    allocateEach[3]  1
    x[2,3]    findWorstP[1,2]  -9.8220066442361781e-02
    x[2,3]    findWorstP[2,1]  1.8298924274319704e-02
    x[2,4]    allocateEach[4]  1
    x[2,4]    findWorstP[1,2]  -5.3960537907171736e-02
    x[2,4]    findWorstP[2,1]  4.8571814828405335e-02
    x[2,5]    allocateEach[5]  1
    x[2,5]    findWorstP[1,2]  -0.0102635405500069
    x[2,5]    findWorstP[2,1]  2.4923231425867630e-02
    x[2,6]    allocateEach[6]  1
    x[2,6]    findWorstP[1,2]  -5.8598766676926671e-02
    x[2,6]    findWorstP[2,1]  9.0384132563394434e-02
    x[2,7]    allocateEach[7]  1
    x[2,7]    findWorstP[1,2]  -1.7947928717747329e-02
    x[2,7]    findWorstP[2,1]  7.7145174684717752e-02
    x[2,8]    allocateEach[8]  1
    x[2,8]    findWorstP[1,2]  -7.9805130708895430e-02
    x[2,8]    findWorstP[2,1]  3.2059329071631358e-02
    x[2,9]    allocateEach[9]  1
    x[2,9]    findWorstP[1,2]  -5.0298778352102065e-02
    x[2,9]    findWorstP[2,1]  4.4892717124703059e-02
    x[2,10]   allocateEach[10]  1
    x[2,10]   findWorstP[1,2]  -1.8977466911491554e-02
    x[2,10]   findWorstP[2,1]  7.2394213870488042e-02
    x[2,11]   allocateEach[11]  1
    x[2,11]   findWorstP[1,2]  -4.6053260027383594e-02
    x[2,11]   findWorstP[2,1]  6.8840649684234922e-02
    x[2,12]   allocateEach[12]  1
    x[2,12]   findWorstP[1,2]  -7.1420232017576454e-02
    x[2,12]   findWorstP[2,1]  3.2445586048397996e-03
    x[2,13]   allocateEach[13]  1
    x[2,13]   findWorstP[1,2]  -5.8800428797350805e-02
    x[2,13]   findWorstP[2,1]  6.0777535294231244e-02
    x[2,14]   allocateEach[14]  1
    x[2,14]   findWorstP[1,2]  -1.0522517167814725e-01
    x[2,14]   findWorstP[2,1]  8.4097800266517309e-02
    x[2,15]   allocateEach[15]  1
    x[2,15]   findWorstP[1,2]  -3.0610187121220163e-02
    x[2,15]   findWorstP[2,1]  0.0679908843353483
    x[2,16]   allocateEach[16]  1
    x[2,16]   findWorstP[1,2]  -6.0530477514673574e-02
    x[2,16]   findWorstP[2,1]  5.8749686166206377e-02
    x[2,17]   allocateEach[17]  1
    x[2,17]   findWorstP[1,2]  -2.5897661780782660e-02
    x[2,17]   findWorstP[2,1]  9.0780045964580239e-02
    x[2,18]   allocateEach[18]  1
    x[2,18]   findWorstP[1,2]  -1.0007748070942611e-01
    x[2,18]   findWorstP[2,1]  4.5674887502655517e-03
    MARKER    'MARKER'                 'INTEND'
RHS
    RHS1      allocateEach[1]  1
    RHS1      allocateEach[2]  1
    RHS1      allocateEach[3]  1
    RHS1      allocateEach[4]  1
    RHS1      allocateEach[5]  1
    RHS1      allocateEach[6]  1
    RHS1      allocateEach[7]  1
    RHS1      allocateEach[8]  1
    RHS1      allocateEach[9]  1
    RHS1      allocateEach[10]  1
    RHS1      allocateEach[11]  1
    RHS1      allocateEach[12]  1
    RHS1      allocateEach[13]  1
    RHS1      allocateEach[14]  1
    RHS1      allocateEach[15]  1
    RHS1      allocateEach[16]  1
    RHS1      allocateEach[17]  1
    RHS1      allocateEach[18]  1
    RHS1      allocateAllCash  1
BOUNDS
 UP BND1      z         1
 MI BND1      cashProportion[1]
 UP BND1      cashProportion[1]  1
 MI BND1      cashProportion[2]
 UP BND1      cashProportion[2]  1
 BV BND1      x[1,1]  
 BV BND1      x[1,2]  
 BV BND1      x[1,3]  
 BV BND1      x[1,4]  
 BV BND1      x[1,5]  
 BV BND1      x[1,6]  
 BV BND1      x[1,7]  
 BV BND1      x[1,8]  
 BV BND1      x[1,9]  
 BV BND1      x[1,10] 
 BV BND1      x[1,11] 
 BV BND1      x[1,12] 
 BV BND1      x[1,13] 
 BV BND1      x[1,14] 
 BV BND1      x[1,15] 
 BV BND1      x[1,16] 
 BV BND1      x[1,17] 
 BV BND1      x[1,18] 
 BV BND1      x[2,1]  
 BV BND1      x[2,2]  
 BV BND1      x[2,3]  
 BV BND1      x[2,4]  
 BV BND1      x[2,5]  
 BV BND1      x[2,6]  
 BV BND1      x[2,7]  
 BV BND1      x[2,8]  
 BV BND1      x[2,9]  
 BV BND1      x[2,10] 
 BV BND1      x[2,11] 
 BV BND1      x[2,12] 
 BV BND1      x[2,13] 
 BV BND1      x[2,14] 
 BV BND1      x[2,15] 
 BV BND1      x[2,16] 
 BV BND1      x[2,17] 
 BV BND1      x[2,18] 
ENDATA
